unsat
(:added-eqs                       313036
 :arith-eq-adapter                321
 :arith-bound-propagations-lp     93018
 :arith-branch                    54
 :arith-conflicts                 20099
 :arith-cube-calls                27
 :arith-diseq                     199048
 :arith-fixed-eqs                 110774
 :arith-gcd-calls                 897
 :arith-gcd-conflict              25
 :arith-gomory-cuts               91
 :arith-grobner-calls             1252
 :arith-grobner-conflicts         777
 :arith-hnf-calls                 4
 :arith-horner-calls              271
 :arith-horner-conflicts          87
 :arith-horner-cross-nested-forms 54338
 :arith-lower                     540457
 :arith-make-feasible             180243
 :arith-max-columns               330
 :arith-max-rows                  213
 :arith-nla-add-bounds            85
 :arith-nla-lemmas                1253
 :arith-nla-propagate-bounds      1202
 :arith-nla-propagate-eq          168688
 :arith-nra-calls                 604
 :arith-offset-eqs                46811
 :arith-patches                   872
 :arith-patches-success           754
 :arith-upper                     895591
 :binary-propagations             964313
 :conflicts                       30760
 :decisions                       122458
 :del-clause                      27776
 :final-checks                    2263
 :max-memory                      109.00
 :memory                          20.21
 :minimized-lits                  125996
 :mk-bool-var                     5481
 :mk-clause                       64426
 :mk-clause-binary                1025
 :nlsat-conflicts                 32687
 :nlsat-decisions                 2132
 :nlsat-irrational-assignments    24
 :nlsat-propagations              1150276
 :nlsat-stages                    233077
 :num-allocs                      50201378291.00
 :num-checks                      1
 :propagations                    1960531
 :restarts                        168
 :rlimit-count                    49627053
 :sls-arith-steps                 2277392
 :sls-ddfw-flips                  888855.00
 :sls-ddfw-reinits                13
 :sls-ddfw-restarts               757
 :sls-ddfw-shifts                 2122972.00
 :sls-num-guided-search           2057
 :sls-num-restart-search          8
 :solve-eqs-elim-vars             10
 :solve-eqs-steps                 124
 :time                            35.31
 :total-time                      35.25)
